108
0 50 106 37 22 58 4 1 52 21 
12 11 49 60 56 59 101 24 3 8 
103 34 26 40 55 18 88 6 107 80 
38 77 48 57 87 14 90 71 54 67 
5 66 35 104 82 27 51 76 43 29 
91 20 13 28 31 2 105 9 64 42 
23 100 98 94 53 73 30 86 83 75 
72 63 93 102 19 45 65 85 17 16 
74 97 36 44 89 7 69 39 99 96 
41 47 33 79 84 95 92 62 15 68 
32 78 70 81 61 46 25 10 
